p cnf 41 135
-3 -1 0
-3 2 0
1 -2 3 0
5 1 0
5 -4 0
-1 4 -5 0
3 -5 -6 0
-3 5 -6 0
3 5 6 0
-3 -5 6 0
8 6 0
8 -7 0
-6 7 -8 0
-8 9 -10 0
8 -9 -10 0
-8 -9 10 0
8 9 10 0
12 -6 0
12 11 0
6 -11 -12 0
-3 12 -13 0
3 -12 -13 0
-3 -12 13 0
3 12 13 0
-14 -10 0
-14 13 0
10 -13 14 0
1 -2 -15 0
-1 2 -15 0
1 2 15 0
-1 -2 15 0
16 7 0
16 -15 0
-7 15 -16 0
17 -2 0
17 -2 0
2 -17 0
17 -12 -18 0
-17 12 -18 0
17 12 18 0
-17 -12 18 0
19 7 0
19 18 0
-7 -18 -19 0
21 12 0
21 20 0
-12 -20 -21 0
22 -19 0
22 21 0
19 -21 -22 0
23 -2 0
23 3 0
2 -3 -23 0
-25 23 0
-25 24 0
-23 -24 25 0
-22 -25 -26 0
22 25 -26 0
-22 25 26 0
22 -25 26 0
-29 -27 0
-29 -28 0
27 28 29 0
-30 26 0
-30 29 0
-26 -29 30 0
-16 -30 -31 0
16 30 -31 0
-16 30 31 0
16 -30 31 0
-32 -7 0
-32 4 0
7 -4 32 0
33 5 0
33 -32 0
-5 32 -33 0
-31 -33 -34 0
31 33 -34 0
-31 33 34 0
31 -33 34 0
35 -14 0
35 34 0
14 -34 -35 0
3 -17 -36 0
-3 17 -36 0
3 17 36 0
-3 -17 36 0
36 -15 -37 0
-36 15 -37 0
36 15 37 0
-36 -15 37 0
4 -37 -38 0
-4 37 -38 0
4 37 38 0
-4 -37 38 0
39 5 0
39 -5 0
40 -38 0
40 -39 0
38 39 -40 0
41 35 0
41 -40 0
-35 40 -41 0
-24 -1 28 0
2 14 10 -33 0
-22 27 0
34 38 30 0
19 -6 -7 -33 0
-41 -21 27 -15 -14 9 0
25 -23 -26 -33 0
9 -36 -16 26 -5 19 0
26 5 -22 0
8 1 -20 0
-25 -34 0
-22 -33 31 32 -10 40 0
21 -18 -12 0
31 -20 0
1 2 -38 11 -36 28 0
-32 6 26 38 23 0
12 -39 -36 -28 0
-24 13 -34 -16 -25 32 0
-13 -30 0
4 32 -37 25 39 0
13 14 40 10 0
-40 32 36 23 22 -25 0
18 33 5 0
-13 22 31 7 30 0
-32 35 -15 0
-10 13 32 -21 0
37 32 0
13 11 40 -31 41 0
-4 -33 0
8 -23 0
-36 -18 35 0
41 0
